(declare-const a Real)
(declare-const b Real)
(declare-const c Real)
(declare-const d Real)
(assert (= (* a b c d) 1))
(assert (>= a 0))
(assert (>= b 0))
(assert (>= c 0))
(assert (>= d 0))
(assert (not (<= (+ b c d (* (pow (+ (/ 385 512) (* (/ 1 512) (pow a 2))) 4) (pow (+ (* 1 1 1 1 (pow (* 4 4 4 4 4) -1)) (* 3 (pow 4 -1))) -3)) (* -1 a (pow d 4)) (* -1 b (pow a 4)) (* -1 c (pow b 4)) (* -1 d (pow c 4))) 0)))
(check-sat)
(get-model)
(exit)